NAME (null)_copy
ROWS
 N  OBJ
 E  c0      
 E  c1      
 E  c2      
 E  c3      
 E  c4      
 E  c5      
 E  c6      
 E  c7      
 L  c8      
 L  c9      
 L  c10     
 L  c11     
 E  c12     
 E  c13     
 E  c14     
 E  c15     
 L  c16     
 L  c17     
 L  c18     
 L  c19     
 L  c20     
 L  c21     
 L  c22     
 L  c23     
 L  c24     
 L  c25     
 L  c26     
 L  c27     
 L  c28     
 L  c29     
 L  c30     
 L  c31     
 L  c32     
 L  c33     
 L  c34     
 L  c35     
 L  c36     
 L  c37     
 L  c38     
 L  c39     
 L  c40     
 L  c41     
 L  c42     
 L  c43     
 L  c44     
 L  c45     
 L  c46     
 L  c47     
 L  c48     
 L  c49     
 L  c50     
 L  c51     
 L  c52     
 L  c53     
 L  c54     
 L  c55     
COLUMNS
    MARKER    'MARKER'                 'INTORG'
    x[0,0,0]  c0        1
    x[0,0,0]  c2        -1
    x[0,0,0]  c8        1
    x[0,0,0]  c16       4
    x[0,0,0]  c20       4
    x[0,0,0]  c22       4
    x[0,0,0]  c42       1
    x[0,0,0]  c48       1
    x[0,0,1]  c0        1
    x[0,0,1]  c9        1
    x[0,0,1]  c17       4
    x[0,0,1]  c21       4
    x[0,0,1]  c24       4
    x[0,0,1]  c44       1
    x[0,0,1]  c50       1
    x[1,0,0]  c1        1
    x[1,0,0]  c3        -1
    x[1,0,0]  c10       1
    x[1,0,0]  c18       4
    x[1,0,0]  c23       4
    x[1,0,0]  c30       -1
    x[1,0,0]  c43       1
    x[1,0,0]  c49       1
    x[1,0,0]  c52       -1
    x[1,0,0]  c54       -1
    x[1,0,1]  c1        1
    x[1,0,1]  c11       1
    x[1,0,1]  c19       4
    x[1,0,1]  c25       4
    x[1,0,1]  c32       -1
    x[1,0,1]  c45       1
    x[1,0,1]  c51       1
    x[1,0,1]  c54       -1
    y[0,0,0]  c26       -1
    y[0,0,0]  c35       -1
    y[0,0,0]  c46       1
    y[0,0,0]  c48       -1
    y[0,0,0]  c49       -1
    y[0,0,0]  c52       10
    y[0,0,1]  c28       -1
    y[0,0,1]  c37       -1
    y[0,0,1]  c47       1
    y[0,0,1]  c50       -1
    y[0,0,1]  c51       -1
    y[0,0,1]  c54       10
    y[1,0,0]  c27       -1
    y[1,0,0]  c46       1
    y[1,0,0]  c49       -1
    y[1,0,0]  c53       9
    y[1,0,1]  c29       -1
    y[1,0,1]  c47       1
    y[1,0,1]  c51       -1
    y[1,0,1]  c55       9
    z1[0,0,0]  c26       1
    z1[0,0,0]  c42       -1
    z2[0,0,0]  c30       6
    z2[0,0,0]  c42       -1
    z3[0,0,0]  c34       2
    z3[0,0,0]  c42       -1
    z3[0,0,0]  c52       1
    z3[0,0,0]  c53       1
    z4[0,0,0]  c38       2
    z4[0,0,0]  c42       -1
    z4[0,0,0]  c52       1
    z4[0,0,0]  c53       1
    z1[0,0,1]  c28       1
    z1[0,0,1]  c44       -1
    z2[0,0,1]  c32       6
    z2[0,0,1]  c44       -1
    z3[0,0,1]  c36       2
    z3[0,0,1]  c44       -1
    z3[0,0,1]  c54       1
    z3[0,0,1]  c55       1
    z4[0,0,1]  c40       2
    z4[0,0,1]  c44       -1
    z4[0,0,1]  c54       1
    z4[0,0,1]  c55       1
    z1[1,0,0]  c27       1
    z1[1,0,0]  c43       -1
    z2[1,0,0]  c31       6
    z2[1,0,0]  c43       -1
    z3[1,0,0]  c30       1
    z3[1,0,0]  c35       2
    z3[1,0,0]  c43       -1
    z3[1,0,0]  c52       1
    z3[1,0,0]  c53       1
    z4[1,0,0]  c30       1
    z4[1,0,0]  c39       2
    z4[1,0,0]  c43       -1
    z4[1,0,0]  c52       1
    z4[1,0,0]  c53       1
    z1[1,0,1]  c29       1
    z1[1,0,1]  c45       -1
    z2[1,0,1]  c33       6
    z2[1,0,1]  c45       -1
    z3[1,0,1]  c32       1
    z3[1,0,1]  c37       2
    z3[1,0,1]  c45       -1
    z3[1,0,1]  c54       1
    z3[1,0,1]  c55       1
    z4[1,0,1]  c32       1
    z4[1,0,1]  c41       2
    z4[1,0,1]  c45       -1
    z4[1,0,1]  c54       1
    z4[1,0,1]  c55       1
    u[0,0,0]  c8        -1
    u[0,0,0]  c12       1
    u[0,0,1]  c9        -1
    u[0,0,1]  c14       1
    u[1,0,0]  c10       -1
    u[1,0,0]  c13       1
    u[1,0,1]  c11       -1
    u[1,0,1]  c15       1
    MARKER    'MARKER'                 'INTEND'
    h[0,0]    c2        1
    h[0,0]    c20       -1
    h[0,1]    c2        -1
    h[0,1]    c21       -1
    h[1,0]    c3        1
    h[1,0]    c22       -1
    h[1,0]    c23       -1
    h[1,1]    c3        -1
    h[1,1]    c24       -1
    h[1,1]    c25       -1
    e[0]      OBJ       1
    e[0]      c52       -1
    e[0]      c53       -1
    e[1]      OBJ       1
    e[1]      c54       -1
    e[1]      c55       -1
RHS
    RHS1      c0        1
    RHS1      c1        1
    RHS1      c12       1
    RHS1      c13       1
    RHS1      c14       1
    RHS1      c15       1
    RHS1      c16       6
    RHS1      c17       6
    RHS1      c18       7
    RHS1      c19       7
    RHS1      c20       2
    RHS1      c21       2
    RHS1      c22       2
    RHS1      c23       3
    RHS1      c24       2
    RHS1      c25       3
    RHS1      c30       1
    RHS1      c31       3
    RHS1      c32       1
    RHS1      c33       3
    RHS1      c46       1
    RHS1      c47       1
    RHS1      c52       1
    RHS1      c53       1
    RHS1      c54       1
    RHS1      c55       1
BOUNDS
 BV BND1      x[0,0,0]
 BV BND1      x[0,0,1]
 BV BND1      x[1,0,0]
 BV BND1      x[1,0,1]
 BV BND1      y[0,0,0]
 BV BND1      y[0,0,1]
 BV BND1      y[1,0,0]
 BV BND1      y[1,0,1]
 BV BND1      z1[0,0,0]
 BV BND1      z2[0,0,0]
 BV BND1      z3[0,0,0]
 BV BND1      z4[0,0,0]
 BV BND1      z1[0,0,1]
 BV BND1      z2[0,0,1]
 BV BND1      z3[0,0,1]
 BV BND1      z4[0,0,1]
 BV BND1      z1[1,0,0]
 BV BND1      z2[1,0,0]
 BV BND1      z3[1,0,0]
 BV BND1      z4[1,0,0]
 BV BND1      z1[1,0,1]
 BV BND1      z2[1,0,1]
 BV BND1      z3[1,0,1]
 BV BND1      z4[1,0,1]
 BV BND1      u[0,0,0]
 BV BND1      u[0,0,1]
 BV BND1      u[1,0,0]
 BV BND1      u[1,0,1]
 FX BND1      h[0,0]    4
 UP BND1      h[0,1]    4
 FX BND1      h[1,0]    4
 UP BND1      h[1,1]    4
 UP BND1      e[0]      24
 UP BND1      e[1]      24
ENDATA
